
x = 1;
y = 50;
c = 1618;
n = 50;
w = [72 100 22 57 87 9 35 38 12 86 91 20 12 36 71 66 34 77 96 88 56 43 72 8 9 93 60 24 39 95 81 25 85 53 71 2 67 6 55 30 55 1 57 84 42 56 60 35 41 9];
p = [97 52 66 37 76 70 53 58 63 82 27 82 45 40 53 67 62 46 3 45 50 35 88 85 65 96 33 93 11 78 97 87 71 39 7 4 2 35 8 61 88 90 57 26 82 12 21 75 4 14];
s = [1 1 1 1 1 1 1 1 1 1 1 1 1 1 1 1 1 1 1 1 1 1 1 1 1 1 1 1 1 1 1 1 1 1 1 1 1 1 1 1 1 1 1 1 1 1 1 1 1 1];

